NAME : local_5
TYPE : ATSP
DIMENSION : 30
EDGE_WEIGHT_TYPE : EXPLICIT
EDGE_WEIGHT_FORMAT : FULL_MATRIX
EDGE_WEIGHT_SECTION
0 960 10000000 931 10000000 309 10000000 841 10000000 10000000 10000000 10000000 814 10000000 10000000 10000000 849 10000000 872 10000000 10000000 10000000 837 10000000 10000000 10000000 10000000 540 10000000 10000000 
0 0 10000000 867 10000000 10000000 10000000 10000000 833 956 876 700 10000000 10000000 10000000 10000000 423 918 686 687 10000000 948 213 1062 10000000 10000000 10000000 10000000 10000000 10000000 
0 10000000 0 10000000 1068 10000000 649 387 769 10000000 10000000 10000000 10000000 661 10000000 373 10000000 10000000 728 10000000 369 533 10000000 753 743 832 734 934 338 247 
0 867 10000000 0 588 10000000 10000000 10000000 10000000 849 555 583 551 10000000 438 10000000 449 473 10000000 425 10000000 10000000 704 10000000 10000000 10000000 910 10000000 10000000 10000000 
0 10000000 1039 588 0 10000000 10000000 10000000 10000000 881 642 828 880 813 382 787 945 525 10000000 732 10000000 10000000 10000000 10000000 827 632 409 10000000 879 992 
0 10000000 10000000 10000000 10000000 0 10000000 675 10000000 10000000 10000000 10000000 1076 10000000 10000000 10000000 10000000 10000000 893 10000000 10000000 10000000 10000000 10000000 10000000 10000000 10000000 317 10000000 951 
0 10000000 649 10000000 10000000 10000000 0 937 461 10000000 10000000 10000000 10000000 10000000 10000000 815 10000000 10000000 662 10000000 300 409 10000000 247 10000000 983 10000000 10000000 709 896 
0 10000000 387 10000000 10000000 675 937 0 872 10000000 10000000 10000000 10000000 787 10000000 682 10000000 10000000 717 10000000 637 655 10000000 954 874 10000000 1005 554 694 302 
0 847 769 10000000 10000000 10000000 461 872 0 10000000 10000000 10000000 10000000 10000000 10000000 10000000 1075 10000000 272 10000000 461 239 1008 247 10000000 10000000 10000000 10000000 984 978 
0 956 10000000 849 881 10000000 10000000 10000000 10000000 0 299 337 10000000 10000000 10000000 10000000 788 411 10000000 464 10000000 10000000 966 10000000 10000000 778 987 10000000 10000000 10000000 
0 876 10000000 555 642 10000000 10000000 10000000 10000000 299 0 217 10000000 10000000 800 10000000 594 125 10000000 235 10000000 10000000 826 10000000 10000000 743 830 10000000 10000000 10000000 
0 700 10000000 583 828 10000000 10000000 10000000 10000000 337 217 0 10000000 10000000 922 10000000 465 309 10000000 159 10000000 10000000 662 10000000 10000000 929 10000000 10000000 10000000 10000000 
0 10000000 10000000 551 880 1055 10000000 10000000 10000000 10000000 10000000 10000000 0 10000000 521 10000000 864 10000000 10000000 971 10000000 10000000 10000000 10000000 10000000 10000000 10000000 10000000 10000000 10000000 
0 10000000 661 10000000 813 10000000 10000000 787 10000000 10000000 10000000 10000000 10000000 0 1031 418 10000000 10000000 10000000 10000000 999 10000000 10000000 10000000 159 882 515 10000000 528 510 
0 10000000 10000000 438 382 10000000 10000000 10000000 10000000 10000000 800 922 521 1064 0 10000000 880 682 10000000 783 10000000 10000000 10000000 10000000 10000000 10000000 740 10000000 10000000 10000000 
0 10000000 373 10000000 787 10000000 815 682 10000000 10000000 10000000 10000000 10000000 418 10000000 0 10000000 1198 10000000 10000000 626 843 10000000 991 475 565 434 10000000 146 405 
0 423 10000000 449 945 10000000 10000000 10000000 1079 788 594 465 864 10000000 880 10000000 0 596 872 367 10000000 1256 271 10000000 10000000 10000000 10000000 10000000 10000000 10000000 
0 918 10000000 473 525 10000000 10000000 10000000 10000000 411 125 309 10000000 10000000 682 1108 596 0 10000000 261 10000000 10000000 847 10000000 10000000 704 740 10000000 10000000 10000000 
0 686 728 10000000 10000000 893 662 717 272 10000000 10000000 10000000 10000000 10000000 10000000 10000000 856 10000000 0 10000000 538 287 772 499 10000000 10000000 10000000 10000000 10000000 887 
0 687 10000000 425 732 10000000 10000000 10000000 10000000 464 235 159 971 10000000 783 10000000 367 261 10000000 0 10000000 10000000 608 10000000 10000000 928 1006 10000000 10000000 10000000 
0 10000000 369 10000000 10000000 10000000 300 637 461 10000000 10000000 10000000 10000000 999 10000000 626 10000000 10000000 538 10000000 0 261 10000000 388 10000000 900 976 10000000 537 612 
0 954 533 10000000 10000000 10000000 409 655 239 10000000 10000000 10000000 10000000 10000000 10000000 843 1087 10000000 287 10000000 261 0 1045 315 10000000 10000000 10000000 10000000 772 741 
0 213 10000000 704 10000000 10000000 10000000 10000000 994 966 826 662 10000000 10000000 10000000 10000000 271 847 772 608 10000000 1086 0 10000000 10000000 10000000 10000000 10000000 10000000 10000000 
0 1057 753 10000000 10000000 10000000 247 954 247 10000000 10000000 10000000 10000000 10000000 10000000 991 10000000 10000000 499 10000000 388 315 10000000 0 10000000 10000000 10000000 10000000 896 990 
0 10000000 743 10000000 906 10000000 10000000 874 10000000 10000000 10000000 10000000 10000000 159 10000000 475 10000000 10000000 10000000 10000000 10000000 10000000 10000000 10000000 0 905 541 10000000 584 598 
0 10000000 832 10000000 632 10000000 989 10000000 10000000 778 743 1006 10000000 820 10000000 565 10000000 704 10000000 972 915 10000000 10000000 10000000 894 0 385 10000000 583 927 
0 10000000 734 946 409 10000000 10000000 1051 10000000 987 830 10000000 10000000 515 740 434 10000000 740 10000000 1018 995 10000000 10000000 10000000 527 385 0 10000000 530 747 
0 10000000 934 10000000 10000000 317 10000000 554 10000000 10000000 10000000 10000000 10000000 10000000 10000000 10000000 10000000 10000000 10000000 10000000 10000000 10000000 10000000 10000000 10000000 10000000 10000000 0 10000000 788 
0 10000000 338 10000000 879 10000000 709 694 984 10000000 10000000 10000000 10000000 528 10000000 146 10000000 10000000 10000000 10000000 537 772 10000000 896 584 583 530 10000000 0 437 
0 10000000 10000000 10000000 10000000 10000000 10000000 10000000 10000000 10000000 10000000 10000000 10000000 10000000 10000000 10000000 10000000 10000000 10000000 10000000 10000000 10000000 10000000 10000000 10000000 10000000 10000000 10000000 10000000 0 
EOF